submitit INFO (2023-05-02 18:49:28,216) - Starting with JobEnvironment(job_id=27726, hostname=cpunode2, local_rank=3(5), node=0(1), global_rank=3(5))
submitit INFO (2023-05-02 18:49:28,216) - Loading pickle: /h/30/pashootan/Matrix-Mult-CP/src/../logs/4/1x2x2_4_May02_18:49:24/27726_submitted.pkl
 ! --------------------------------------------------- CP Optimizer 22.1.1.0 --
 ! Satisfiability problem - 32 variables, 16 constraints
 ! TimeLimit            = 7200
 ! Workers              = 8
 ! LogPeriod            = 10000000
 ! RandomSeed           = 8794
 ! Initial process time : 0.00s (0.00s extraction + 0.00s propagation)
 !  . Log search space  : 50.7 (before), 50.7 (after)
 !  . Memory usage      : 332.7 kB (before), 332.7 kB (after)
 ! Using parallel search with 8 workers.
 ! ----------------------------------------------------------------------------
 !               Branches  Non-fixed    W       Branch decision
 *                    203  0.02s        1         0  = W0_0
 ! ----------------------------------------------------------------------------
 ! Search completed, 1 solution found.
 ! ----------------------------------------------------------------------------
 ! Number of branches     : 5166
 ! Number of fails        : 2431
 ! Total memory usage     : 4.9 MB (4.9 MB CP Optimizer + 0.0 MB Concert)
 ! Time spent in solve    : 0.02s (0.02s engine + 0.00s extraction)
 ! Search speed (br. / s) : 516599.9
 ! ----------------------------------------------------------------------------
Feasible
Model is valid
Saving solution to: /h/30/pashootan/Matrix-Mult-CP/logs/4/1x2x2_4_May02_18:49:24/27726_3_solution.txt
Saving stats to: /h/30/pashootan/Matrix-Mult-CP/logs/4/1x2x2_4_May02_18:49:24/27726_3_stats.csv
submitit INFO (2023-05-02 18:49:28,621) - Job completed successfully
